AMPL/Part D 2/BAN402_Project2_Part_D_2.dat
# Sets
set C:=
N1,
N2,
N3,
N4,
N5,
C1,
C2,
C3,
C4,
C5,
C6,
S1,
S2,
S3,
S4,
S5
;

set S:=
N1,
N3,
C1,
C2,
S2,
S4,
S5
;

set K:= 1,2,3,4;

set N:= 1,2,3,4;

param E:
	1		2		3		4:=
N1	0		0		0		0
N2	0		0		0		0
N3	0		0		0		0
N4	0		0		0		0
N5	0		0		0		0
C1	150		100		50		0
C2	150		100		50		0
C3	150		100		50		0
C4	150		100		50		0
C5	150		100		50		0
C6	150		100		50		0
S1	200		160		120		0	
S2	200		160		120		0
S3	200		160		120		0
S4	200		160		120		0
S5	200		160		120		0
;





